(set-info :smt-lib-version 2.6)
(set-logic QF_NIA)
(set-info :source |AProve team, see http://aprove.informatik.rwth-aachen.de/, submitted for SMT-COMP 2014|)
(set-info :category "industrial")
(set-info :status sat)
(declare-fun b__49 () Int)
(declare-fun a__14 () Int)
(declare-fun a__11 () Int)
(declare-fun a__23 () Int)
(declare-fun a__30 () Int)
(declare-fun a__34 () Int)
(declare-fun a__41 () Int)
(declare-fun b__50 () Int)
(declare-fun a__2 () Int)
(declare-fun b__51 () Int)
(declare-fun a__19 () Int)
(declare-fun b__52 () Int)
(declare-fun a__45 () Int)
(declare-fun a__16 () Int)
(declare-fun b__53 () Int)
(declare-fun a__7 () Int)
(declare-fun a__43 () Int)
(declare-fun a__26 () Int)
(declare-fun b__54 () Int)
(declare-fun a__9 () Int)
(declare-fun b__55 () Int)
(declare-fun a__39 () Int)
(declare-fun b__56 () Int)
(declare-fun a__4 () Int)
(declare-fun a__12 () Int)
(declare-fun a__21 () Int)
(declare-fun a__24 () Int)
(declare-fun a__28 () Int)
(declare-fun a__31 () Int)
(declare-fun a__35 () Int)
(declare-fun a__32 () Int)
(declare-fun a__37 () Int)
(declare-fun a__5 () Int)
(declare-fun a__15 () Int)
(declare-fun a__3 () Int)
(declare-fun a__44 () Int)
(declare-fun a__46 () Int)
(declare-fun a__47 () Int)
(declare-fun a__10 () Int)
(declare-fun a__17 () Int)
(declare-fun a__18 () Int)
(declare-fun a__20 () Int)
(declare-fun a__6 () Int)
(declare-fun a__22 () Int)
(declare-fun a__25 () Int)
(declare-fun a__27 () Int)
(declare-fun a__8 () Int)
(declare-fun a__29 () Int)
(declare-fun a__33 () Int)
(declare-fun a__36 () Int)
(declare-fun a__42 () Int)
(declare-fun a__38 () Int)
(declare-fun a__40 () Int)
(declare-fun a__48 () Int)
(declare-fun a__1 () Int)
(declare-fun a__13 () Int)
(assert (and (>= (+ 1 (* (- 0 1) b__49)) 0) (= (+ (* b__49 a__14 a__11) (* (- 0 1) (* a__14 a__11))) 0) (= (+ (* b__49 a__14 a__23) (* (- 0 1) (* a__14 a__23))) 0) (= (+ (* b__49 a__14 a__30) (* (- 0 1) (* a__14 a__30))) 0) (= (+ (* b__49 a__14 a__34) (* (- 0 1) (* a__14 a__34))) 0) (= (+ (* b__49 a__14 a__41) (* (- 0 1) (* a__14 a__41))) 0) (>= (+ 1 (* (- 0 1) b__50)) 0) (= (+ (* b__50 a__14) (* (- 0 1) a__14)) 0) (= (+ (* b__50 a__2) (* (- 0 1) a__2)) 0) (>= (+ 1 (* (- 0 1) b__51)) 0) (= (+ (* b__51 a__14) (* (- 0 1) a__14)) 0) (= (+ (* b__51 a__2 a__19) (* (- 0 1) (* a__2 a__19))) 0) (>= (+ 1 (* (- 0 1) b__52)) 0) (= (+ (* b__52 a__2) (* (- 0 1) a__2)) 0) (= (+ (* b__52 a__14 a__11 a__45) (* (- 0 1) (* a__14 a__11 a__45))) 0) (= (+ (* b__52 a__14 a__11 a__16) (* (- 0 1) (* a__14 a__11 a__16))) 0) (= (+ (* b__52 a__14 a__23 a__45) (* (- 0 1) (* a__14 a__23 a__45))) 0) (= (+ (* b__52 a__14 a__23 a__16) (* (- 0 1) (* a__14 a__23 a__16))) 0) (= (+ (* b__52 a__14 a__30 a__45) (* (- 0 1) (* a__14 a__30 a__45))) 0) (= (+ (* b__52 a__14 a__30 a__16) (* (- 0 1) (* a__14 a__30 a__16))) 0) (= (+ (* b__52 a__14 a__34 a__45) (* (- 0 1) (* a__14 a__34 a__45))) 0) (= (+ (* b__52 a__14 a__34 a__16) (* (- 0 1) (* a__14 a__34 a__16))) 0) (= (+ (* b__52 a__14 a__45 a__41) (* (- 0 1) (* a__14 a__45 a__41))) 0) (= (+ (* b__52 a__14 a__41 a__16) (* (- 0 1) (* a__14 a__41 a__16))) 0) (>= (+ 1 (* (- 0 1) b__53)) 0) (= (+ (* b__53 a__14) (* (- 0 1) a__14)) 0) (= (+ (* b__53 a__2 a__7) (* (- 0 1) (* a__2 a__7))) 0) (= (+ (* b__53 a__2 a__43) (* (- 0 1) (* a__2 a__43))) 0) (= (+ (* b__53 a__2 a__26) (* (- 0 1) (* a__2 a__26))) 0) (= (+ (* b__53 a__2 a__30) (* (- 0 1) (* a__2 a__30))) 0) (>= (+ 1 (* (- 0 1) b__54)) 0) (= (+ (* b__54 a__14) (* (- 0 1) a__14)) 0) (= (+ (* b__54 a__2 a__9) (* (- 0 1) (* a__2 a__9))) 0) (= (+ (* b__54 a__2 a__11) (* (- 0 1) (* a__2 a__11))) 0) (= (+ (* b__54 a__2 a__23) (* (- 0 1) (* a__2 a__23))) 0) (= (+ (* b__54 a__2 a__34) (* (- 0 1) (* a__2 a__34))) 0) (>= (+ 1 (* (- 0 1) b__55)) 0) (= (+ (* b__55 a__14) (* (- 0 1) a__14)) 0) (= (+ (* b__55 a__2 a__39) (* (- 0 1) (* a__2 a__39))) 0) (>= (+ 1 (* (- 0 1) b__56)) 0) (= (+ (* b__56 a__14 a__11 a__45) (* (- 0 1) (* a__14 a__11 a__45))) 0) (= (+ (* b__56 a__14 a__23 a__45) (* (- 0 1) (* a__14 a__23 a__45))) 0) (= (+ (* b__56 a__14 a__30 a__45) (* (- 0 1) (* a__14 a__30 a__45))) 0) (= (+ (* b__56 a__14 a__34 a__45) (* (- 0 1) (* a__14 a__34 a__45))) 0) (= (+ (* b__56 a__14 a__45 a__41) (* (- 0 1) (* a__14 a__45 a__41))) 0) (>= (+ (* a__4 a__2) (* (- 0 1) a__2)) 0) (>= (+ (* a__7 a__2) (* (- 0 1) a__2)) 0) (>= (+ (* a__9 a__2) (* (- 0 1) a__2)) 0) (>= (+ (* a__11 a__2) (* (- 0 1) (* a__16 a__11 a__14))) 0) (>= (+ (* a__12 a__2) (* (- 0 1) (* a__12 a__14))) 0) (>= (+ (* a__12 a__14) (* (- 0 1) (* a__21 a__19 a__2))) 0) (>= (+ (* a__19 a__2) (* (- 0 1) a__2)) 0) (>= (+ (* a__21 a__2) (* (- 0 1) (* a__21 a__14))) 0) (>= (+ (* a__24 a__14) (* (- 0 1) (* a__28 a__26 a__2))) 0) (>= (+ (* a__23 a__2) (* (- 0 1) (* a__16 a__23 a__14))) 0) (>= (+ (* a__24 a__2) (* (- 0 1) (* a__24 a__14))) 0) (>= (+ (* a__31 a__14) (* (- 0 1) (* a__35 a__2))) 0) (>= (+ (* a__32 a__14) (* (- 0 1) (* a__37 a__34 a__2))) 0) (>= (+ (* a__23 a__2) (* (- 0 1) a__2)) 0) (>= (+ (* a__26 a__2) (* (- 0 1) a__2)) 0) (>= (+ (* a__28 a__2) (* (- 0 1) (* a__28 a__14))) 0) (>= (+ (* a__35 a__14) (* (- 0 1) (* a__41 a__39 a__2))) 0) (>= (+ (* a__30 a__2) (* (- 0 1) (* a__16 a__30 a__14))) 0) (>= (+ (* a__31 a__2) (* (- 0 1) (* a__31 a__14))) 0) (>= (+ (* a__32 a__2) (* (- 0 1) (* a__32 a__14))) 0) (>= (+ (* a__41 a__37 a__14) (* (- 0 1) (* a__28 a__7 a__2))) 0) (>= (+ (* a__34 a__2) (* (- 0 1) (* a__16 a__34 a__14))) 0) (>= (+ (* a__35 a__2) (* (- 0 1) (* a__35 a__14))) 0) (>= (+ (* a__39 a__37 a__14) (* (- 0 1) (* a__37 a__9 a__2))) 0) (>= (+ (* a__37 a__2) (* (- 0 1) (* a__37 a__14))) 0) (>= (+ (* a__21 a__14) (* (- 0 1) (* a__28 a__43 a__2))) 0) (>= (+ (* a__39 a__2) (* (- 0 1) a__2)) 0) (>= (+ (* a__41 a__2) (* (- 0 1) (* a__16 a__41 a__14))) 0) (>= (+ (* a__4 a__21 a__14) (* (- 0 1) (* a__37 a__11 a__2))) 0) (>= (+ (* a__5 a__21 a__14) (* (- 0 1) (* a__12 a__2))) 0) (>= (+ (* a__4 a__28 a__14) (* (- 0 1) (* a__37 a__23 a__2))) 0) (>= (+ (* a__5 a__28 a__14) (* (- 0 1) (* a__24 a__2))) 0) (>= (+ (* a__4 a__41 a__14) (* (- 0 1) (* a__32 a__2))) 0) (>= (+ (* a__5 a__41 a__14) (* (- 0 1) (* a__28 a__30 a__2)) (* (- 0 1) (* a__31 a__2))) 0) (>= (+ (* b__49 a__15) (* b__49 a__3 a__16) (* (- 0 1) (* b__49 a__44)) (* (- 0 1) (* b__49 a__3 a__45)) (* (- 0 1) (* b__49 a__15 a__4 a__45))) 0) (>= (+ (* b__49 a__4 a__16) (* (- 0 1) (* b__49 a__16 a__4 a__45))) 0) (>= (+ (* b__49 a__5 a__16) (* (- 0 1) (* b__49 a__5 a__45))) 0) (>= (+ (* b__49 a__44) (* b__49 a__46 a__45) (* (- 0 1) (* b__49 a__15)) (* (- 0 1) (* b__49 a__3 a__16)) (* (- 0 1) (* b__49 a__47 a__4 a__16)) (* (- 0 1) (* b__49 a__46 a__5 a__16))) 0) (>= (+ (* b__49 a__44) (* b__49 a__10 a__45) (* b__49 a__17 a__11 a__45) (* (- 0 1) (* b__49 a__15)) (* (- 0 1) (* b__49 a__18 a__16)) (* (- 0 1) (* b__49 a__20 a__19 a__16))) 0) (>= (+ (* b__49 a__12 a__45) (* (- 0 1) (* b__49 a__21 a__19 a__16))) 0) (>= (+ (* b__49 a__15) (* b__49 a__46 a__16) (* (- 0 1) (* b__49 a__44)) (* (- 0 1) (* b__49 a__46 a__45))) 0) (>= (+ (* b__49 a__15) (* b__49 a__6 a__16) (* (- 0 1) (* b__49 a__44)) (* (- 0 1) (* b__49 a__6 a__45)) (* (- 0 1) (* b__49 a__15 a__7 a__45))) 0) (>= (+ (* b__49 a__7 a__16) (* (- 0 1) (* b__49 a__16 a__7 a__45))) 0) (>= (+ (* b__49 a__44) (* b__49 a__22 a__45) (* b__49 a__17 a__23 a__45) (* (- 0 1) (* b__49 a__15)) (* (- 0 1) (* b__49 a__25 a__16)) (* (- 0 1) (* b__49 a__27 a__26 a__16))) 0) (>= (+ (* b__49 a__24 a__45) (* (- 0 1) (* b__49 a__28 a__26 a__16))) 0) (>= (+ (* b__49 a__15) (* b__49 a__8 a__16) (* (- 0 1) (* b__49 a__44)) (* (- 0 1) (* b__49 a__8 a__45)) (* (- 0 1) (* b__49 a__15 a__9 a__45))) 0) (>= (+ (* b__49 a__9 a__16) (* (- 0 1) (* b__49 a__16 a__9 a__45))) 0) (>= (+ (* b__49 a__44) (* b__49 a__29 a__45) (* b__49 a__17 a__30 a__45) (* (- 0 1) (* b__49 a__15)) (* (- 0 1) (* b__49 a__33 a__16)) (* (- 0 1) (* b__49 a__36 a__34 a__16))) 0) (>= (+ (* b__49 a__31 a__45) (* (- 0 1) (* b__49 a__35 a__16))) 0) (>= (+ (* b__49 a__32 a__45) (* (- 0 1) (* b__49 a__37 a__34 a__16))) 0) (>= (+ (* b__49 a__15) (* b__49 a__42 a__16) (* (- 0 1) (* b__49 a__44)) (* (- 0 1) (* b__49 a__42 a__45)) (* (- 0 1) (* b__49 a__15 a__43 a__45))) 0) (>= (+ (* b__49 a__43 a__16) (* (- 0 1) (* b__49 a__16 a__43 a__45))) 0) (>= (+ (* b__49 a__44) (* b__49 a__33 a__45) (* b__49 a__17 a__34 a__45) (* (- 0 1) (* b__49 a__15)) (* (- 0 1) (* b__49 a__38 a__16)) (* (- 0 1) (* b__49 a__40 a__39 a__16))) 0) (>= (+ (* b__49 a__35 a__45) (* (- 0 1) (* b__49 a__41 a__39 a__16))) 0) (>= (+ (* b__49 a__15) (* b__49 a__10 a__16) (* (- 0 1) (* b__49 a__44)) (* (- 0 1) (* b__49 a__10 a__45)) (* (- 0 1) (* b__49 a__15 a__11 a__45))) 0) (>= (+ (* b__49 a__11 a__16) (* (- 0 1) (* b__49 a__16 a__11 a__45))) 0) (>= (+ (* b__49 a__12 a__16) (* (- 0 1) (* b__49 a__12 a__45))) 0) (>= (+ (* b__49 a__44) (* b__49 a__36 a__45) (* b__49 a__40 a__37 a__45) (* (- 0 1) (* b__49 a__15)) (* (- 0 1) (* b__49 a__6 a__16)) (* (- 0 1) (* b__49 a__27 a__7 a__16))) 0) (>= (+ (* b__49 a__41 a__37 a__45) (* (- 0 1) (* b__49 a__28 a__7 a__16))) 0) (>= (+ (* b__49 a__15) (* b__49 a__18 a__16) (* (- 0 1) (* b__49 a__44)) (* (- 0 1) (* b__49 a__18 a__45)) (* (- 0 1) (* b__49 a__15 a__19 a__45))) 0) (>= (+ (* b__49 a__19 a__16) (* (- 0 1) (* b__49 a__16 a__19 a__45))) 0) (>= (+ (* b__49 a__44) (* b__49 a__36 a__45) (* b__49 a__38 a__37 a__45) (* (- 0 1) (* b__49 a__15)) (* (- 0 1) (* b__49 a__8 a__16)) (* (- 0 1) (* b__49 a__36 a__9 a__16))) 0) (>= (+ (* b__49 a__39 a__37 a__45) (* (- 0 1) (* b__49 a__37 a__9 a__16))) 0) (>= (+ (* b__49 a__15) (* b__49 a__20 a__16) (* (- 0 1) (* b__49 a__44)) (* (- 0 1) (* b__49 a__20 a__45))) 0) (>= (+ (* b__49 a__21 a__16) (* (- 0 1) (* b__49 a__21 a__45))) 0) (>= (+ (* b__49 a__44) (* b__49 a__20 a__45) (* (- 0 1) (* b__49 a__15)) (* (- 0 1) (* b__49 a__42 a__16)) (* (- 0 1) (* b__49 a__27 a__43 a__16))) 0) (>= (+ (* b__49 a__21 a__45) (* (- 0 1) (* b__49 a__28 a__43 a__16))) 0) (>= (+ (* b__49 a__15) (* b__49 a__22 a__16) (* (- 0 1) (* b__49 a__44)) (* (- 0 1) (* b__49 a__22 a__45)) (* (- 0 1) (* b__49 a__15 a__23 a__45))) 0) (>= (+ (* b__49 a__23 a__16) (* (- 0 1) (* b__49 a__16 a__23 a__45))) 0) (>= (+ (* b__49 a__24 a__16) (* (- 0 1) (* b__49 a__24 a__45))) 0) (>= (+ (* b__49 a__44) (* b__49 a__20 a__45) (* b__49 a__3 a__21 a__45) (* (- 0 1) (* b__49 a__15)) (* (- 0 1) (* b__49 a__10 a__16)) (* (- 0 1) (* b__49 a__36 a__11 a__16))) 0) (>= (+ (* b__49 a__4 a__21 a__45) (* (- 0 1) (* b__49 a__37 a__11 a__16))) 0) (>= (+ (* b__49 a__5 a__21 a__45) (* (- 0 1) (* b__49 a__12 a__16))) 0) (>= (+ (* b__49 a__15) (* b__49 a__25 a__16) (* (- 0 1) (* b__49 a__44)) (* (- 0 1) (* b__49 a__25 a__45)) (* (- 0 1) (* b__49 a__15 a__26 a__45))) 0) (>= (+ (* b__49 a__26 a__16) (* (- 0 1) (* b__49 a__16 a__26 a__45))) 0) (>= (+ (* b__49 a__44) (* b__49 a__27 a__45) (* b__49 a__3 a__28 a__45) (* (- 0 1) (* b__49 a__15)) (* (- 0 1) (* b__49 a__22 a__16)) (* (- 0 1) (* b__49 a__36 a__23 a__16))) 0) (>= (+ (* b__49 a__4 a__28 a__45) (* (- 0 1) (* b__49 a__37 a__23 a__16))) 0) (>= (+ (* b__49 a__5 a__28 a__45) (* (- 0 1) (* b__49 a__24 a__16))) 0) (>= (+ (* b__49 a__15) (* b__49 a__27 a__16) (* (- 0 1) (* b__49 a__44)) (* (- 0 1) (* b__49 a__27 a__45))) 0) (>= (+ (* b__49 a__28 a__16) (* (- 0 1) (* b__49 a__28 a__45))) 0) (>= (+ (* b__49 a__44) (* b__49 a__40 a__45) (* b__49 a__3 a__41 a__45) (* (- 0 1) (* b__49 a__15)) (* (- 0 1) (* b__49 a__29 a__16)) (* (- 0 1) (* b__49 a__27 a__30 a__16))) 0) (>= (+ (* b__49 a__4 a__41 a__45) (* (- 0 1) (* b__49 a__32 a__16))) 0) (>= (+ (* b__49 a__5 a__41 a__45) (* (- 0 1) (* b__49 a__28 a__30 a__16)) (* (- 0 1) (* b__49 a__31 a__16))) 0) (>= (+ (* b__49 a__15) (* b__49 a__29 a__16) (* (- 0 1) (* b__49 a__44)) (* (- 0 1) (* b__49 a__29 a__45)) (* (- 0 1) (* b__49 a__15 a__30 a__45))) 0) (>= (+ (* b__49 a__30 a__16) (* (- 0 1) (* b__49 a__16 a__30 a__45))) 0) (>= (+ (* b__49 a__31 a__16) (* (- 0 1) (* b__49 a__31 a__45))) 0) (>= (+ (* b__49 a__32 a__16) (* (- 0 1) (* b__49 a__32 a__45))) 0) (>= (+ (* b__49 a__15) (* b__49 a__33 a__16) (* (- 0 1) (* b__49 a__44)) (* (- 0 1) (* b__49 a__33 a__45)) (* (- 0 1) (* b__49 a__15 a__34 a__45))) 0) (>= (+ (* b__49 a__34 a__16) (* (- 0 1) (* b__49 a__16 a__34 a__45))) 0) (>= (+ (* b__49 a__35 a__16) (* (- 0 1) (* b__49 a__35 a__45))) 0) (>= (+ (* b__49 a__15) (* b__49 a__36 a__16) (* (- 0 1) (* b__49 a__44)) (* (- 0 1) (* b__49 a__36 a__45))) 0) (>= (+ (* b__49 a__37 a__16) (* (- 0 1) (* b__49 a__37 a__45))) 0) (>= (+ (* b__49 a__15) (* b__49 a__38 a__16) (* (- 0 1) (* b__49 a__44)) (* (- 0 1) (* b__49 a__38 a__45)) (* (- 0 1) (* b__49 a__15 a__39 a__45))) 0) (>= (+ (* b__49 a__39 a__16) (* (- 0 1) (* b__49 a__16 a__39 a__45))) 0) (>= (+ (* b__49 a__15) (* b__49 a__40 a__16) (* (- 0 1) (* b__49 a__44)) (* (- 0 1) (* b__49 a__40 a__45)) (* (- 0 1) (* b__49 a__15 a__41 a__45))) 0) (>= (+ (* b__49 a__41 a__16) (* (- 0 1) (* b__49 a__16 a__41 a__45))) 0) (>= (+ (* b__49 a__15) (* b__49 a__47 a__16) (* (- 0 1) (* b__49 a__44)) (* (- 0 1) (* b__49 a__47 a__45))) 0) (>= (+ (* b__49 a__15) (* b__49 a__17 a__16) (* (- 0 1) (* b__49 a__44)) (* (- 0 1) (* b__49 a__17 a__45))) 0) (>= (+ (* b__49 a__15) (* b__49 a__48 a__16) (* (- 0 1) (* b__49 a__44)) (* (- 0 1) (* b__49 a__48 a__45))) 0) (>= (+ (* b__50 a__16 a__12) (* (- 0 1) (* b__50 a__12))) 0) (>= (+ (* b__50 a__16 a__11) (* (- 0 1) (* b__50 a__11))) 0) (>= (+ (* b__50 a__45 a__11) (* (- 0 1) (* b__50 a__11))) 0) (>= (+ (* b__50 a__45 a__12) (* (- 0 1) (* b__50 a__12))) 0) (>= (+ (* b__51 a__45 a__21) (* (- 0 1) (* b__51 a__21))) 0) (>= (+ (* b__51 a__16 a__21) (* (- 0 1) (* b__51 a__21))) 0) (>= (+ (* b__52 a__45 a__19) (* (- 0 1) (* b__52 a__19))) 0) (>= (+ (* b__52 a__16 a__19) (* (- 0 1) (* b__52 a__19))) 0) (>= (+ (* b__53 a__45 a__28) (* (- 0 1) (* b__53 a__28))) 0) (>= (+ (* b__53 a__16 a__28) (* (- 0 1) (* b__53 a__28))) 0) (>= (+ (* b__52 a__45 a__26) (* (- 0 1) (* b__52 a__26))) 0) (>= (+ (* b__52 a__16 a__26) (* (- 0 1) (* b__52 a__26))) 0) (>= (+ (* b__50 a__16 a__24) (* (- 0 1) (* b__50 a__24))) 0) (>= (+ (* b__50 a__16 a__23) (* (- 0 1) (* b__50 a__23))) 0) (>= (+ (* b__50 a__45 a__23) (* (- 0 1) (* b__50 a__23))) 0) (>= (+ (* b__50 a__45 a__24) (* (- 0 1) (* b__50 a__24))) 0) (>= (+ (* b__54 a__45 a__37) (* (- 0 1) (* b__54 a__37))) 0) (>= (+ (* b__54 a__16 a__37) (* (- 0 1) (* b__54 a__37))) 0) (>= (+ (* b__50 a__16 a__35) (* (- 0 1) (* b__50 a__35))) 0) (>= (+ (* b__50 a__16 a__34) (* (- 0 1) (* b__50 a__34))) 0) (>= (+ (* b__50 a__45 a__34) (* (- 0 1) (* b__50 a__34))) 0) (>= (+ (* b__50 a__45 a__35) (* (- 0 1) (* b__50 a__35))) 0) (>= (+ (* b__55 a__45 a__41) (* (- 0 1) (* b__55 a__41))) 0) (>= (+ (* b__55 a__16 a__41) (* (- 0 1) (* b__55 a__41))) 0) (>= (+ (* b__52 a__45 a__39) (* (- 0 1) (* b__52 a__39))) 0) (>= (+ (* b__52 a__16 a__39) (* (- 0 1) (* b__52 a__39))) 0) (>= (+ (* b__50 a__16 a__31) (* (- 0 1) (* b__50 a__31))) 0) (>= (+ (* b__50 a__16 a__30) (* (- 0 1) (* b__50 a__30))) 0) (>= (+ (* b__50 a__16 a__32) (* (- 0 1) (* b__50 a__32))) 0) (>= (+ (* b__50 a__45 a__30) (* (- 0 1) (* b__50 a__30))) 0) (>= (+ (* b__50 a__45 a__31) (* (- 0 1) (* b__50 a__31))) 0) (>= (+ (* b__50 a__45 a__32) (* (- 0 1) (* b__50 a__32))) 0) (>= (+ (* b__52 a__45 a__7) (* (- 0 1) (* b__52 a__7))) 0) (>= (+ (* b__52 a__16 a__7) (* (- 0 1) (* b__52 a__7))) 0) (>= (+ (* b__52 a__45 a__9) (* (- 0 1) (* b__52 a__9))) 0) (>= (+ (* b__52 a__16 a__9) (* (- 0 1) (* b__52 a__9))) 0) (>= (+ (* b__52 a__45 a__43) (* (- 0 1) (* b__52 a__43))) 0) (>= (+ (* b__52 a__16 a__43) (* (- 0 1) (* b__52 a__43))) 0) (>= (+ (* b__56 a__16 a__5) (* (- 0 1) (* b__56 a__5))) 0) (>= (+ (* b__56 a__16 a__4) (* (- 0 1) (* b__56 a__4))) 0) (>= (+ (* b__56 a__45 a__4) (* (- 0 1) (* b__56 a__4))) 0) (>= (+ (* b__56 a__45 a__5) (* (- 0 1) (* b__56 a__5))) 0) (>= (+ (* b__49 a__44) (* b__49 a__6 a__45) (* b__49 a__17 a__7 a__45) (* (- 0 1) (* b__49 a__15)) (* (- 0 1) (* b__49 a__17 a__16))) 0) (>= (+ (* b__49 a__44) (* b__49 a__8 a__45) (* b__49 a__17 a__9 a__45) (* (- 0 1) (* b__49 a__15)) (* (- 0 1) (* b__49 a__17 a__16))) 0) (>= (+ (* b__49 a__44) (* b__49 a__42 a__45) (* b__49 a__17 a__43 a__45) (* (- 0 1) (* b__49 a__15)) (* (- 0 1) (* b__49 a__17 a__16))) 0) (>= (+ (* b__49 a__44) (* b__49 a__18 a__45) (* b__49 a__17 a__19 a__45) (* (- 0 1) (* b__49 a__15)) (* (- 0 1) (* b__49 a__17 a__16))) 0) (>= (+ (* b__49 a__44) (* b__49 a__25 a__45) (* b__49 a__17 a__26 a__45) (* (- 0 1) (* b__49 a__15)) (* (- 0 1) (* b__49 a__17 a__16))) 0) (>= (+ (* b__49 a__44) (* b__49 a__36 a__45) (* b__49 a__47 a__37 a__45) (* (- 0 1) (* b__49 a__15)) (* (- 0 1) (* b__49 a__17 a__16))) 0) (>= (+ (* b__49 a__44) (* b__49 a__20 a__45) (* b__49 a__46 a__21 a__45) (* (- 0 1) (* b__49 a__15)) (* (- 0 1) (* b__49 a__17 a__16))) 0) (>= (+ (* b__49 a__44) (* b__49 a__27 a__45) (* b__49 a__48 a__28 a__45) (* (- 0 1) (* b__49 a__15)) (* (- 0 1) (* b__49 a__17 a__16))) 0) (>= (+ (* b__49 a__44) (* b__49 a__40 a__45) (* b__49 a__48 a__41 a__45) (* (- 0 1) (* b__49 a__15)) (* (- 0 1) (* b__49 a__47 a__16))) 0) (>= (* a__3 a__2) 0) (>= (* a__6 a__2) 0) (>= (* a__8 a__2) 0) (>= (+ a__1 (* a__10 a__2) (* (- 0 1) a__13) (* (- 0 1) (* a__10 a__14)) (* (- 0 1) (* a__15 a__11 a__14))) 0) (>= (+ a__13 (* a__10 a__14) (* a__17 a__11 a__14) (* (- 0 1) a__1) (* (- 0 1) (* a__18 a__2)) (* (- 0 1) (* a__20 a__19 a__2))) 0) (>= (* a__18 a__2) 0) (>= (+ a__1 (* a__20 a__2) (* (- 0 1) a__13) (* (- 0 1) (* a__20 a__14))) 0) (>= (+ a__13 (* a__22 a__14) (* a__17 a__23 a__14) (* (- 0 1) a__1) (* (- 0 1) (* a__25 a__2)) (* (- 0 1) (* a__27 a__26 a__2))) 0) (>= (+ a__1 (* a__22 a__2) (* (- 0 1) a__13) (* (- 0 1) (* a__22 a__14)) (* (- 0 1) (* a__15 a__23 a__14))) 0) (>= (+ a__13 (* a__29 a__14) (* a__17 a__30 a__14) (* (- 0 1) a__1) (* (- 0 1) (* a__33 a__2)) (* (- 0 1) (* a__36 a__34 a__2))) 0) (>= (* a__22 a__2) 0) (>= (* a__25 a__2) 0) (>= (+ a__1 (* a__27 a__2) (* (- 0 1) a__13) (* (- 0 1) (* a__27 a__14))) 0) (>= (+ a__13 (* a__33 a__14) (* a__17 a__34 a__14) (* (- 0 1) a__1) (* (- 0 1) (* a__38 a__2)) (* (- 0 1) (* a__40 a__39 a__2))) 0) (>= (+ a__1 (* a__29 a__2) (* (- 0 1) a__13) (* (- 0 1) (* a__29 a__14)) (* (- 0 1) (* a__15 a__30 a__14))) 0) (>= (+ a__13 (* a__36 a__14) (* a__40 a__37 a__14) (* (- 0 1) a__1) (* (- 0 1) (* a__6 a__2)) (* (- 0 1) (* a__27 a__7 a__2))) 0) (>= (+ a__1 (* a__33 a__2) (* (- 0 1) a__13) (* (- 0 1) (* a__33 a__14)) (* (- 0 1) (* a__15 a__34 a__14))) 0) (>= (+ a__13 (* a__36 a__14) (* a__38 a__37 a__14) (* (- 0 1) a__1) (* (- 0 1) (* a__8 a__2)) (* (- 0 1) (* a__36 a__9 a__2))) 0) (>= (+ a__1 (* a__36 a__2) (* (- 0 1) a__13) (* (- 0 1) (* a__36 a__14))) 0) (>= (+ a__13 (* a__20 a__14) (* (- 0 1) a__1) (* (- 0 1) (* a__42 a__2)) (* (- 0 1) (* a__27 a__43 a__2))) 0) (>= (* a__38 a__2) 0) (>= (+ a__1 (* a__40 a__2) (* (- 0 1) a__13) (* (- 0 1) (* a__40 a__14)) (* (- 0 1) (* a__15 a__41 a__14))) 0) (>= (+ a__13 (* a__20 a__14) (* a__3 a__21 a__14) (* (- 0 1) a__1) (* (- 0 1) (* a__10 a__2)) (* (- 0 1) (* a__36 a__11 a__2))) 0) (>= (+ a__13 (* a__27 a__14) (* a__3 a__28 a__14) (* (- 0 1) a__1) (* (- 0 1) (* a__22 a__2)) (* (- 0 1) (* a__36 a__23 a__2))) 0) (>= (+ a__13 (* a__40 a__14) (* a__3 a__41 a__14) (* (- 0 1) a__1) (* (- 0 1) (* a__29 a__2)) (* (- 0 1) (* a__27 a__30 a__2))) 0) (not (and (= (* a__3 a__2) 0) (= (* a__6 a__2) 0) (= (* a__8 a__2) 0) (= (+ a__1 (* a__10 a__2) (* (- 0 1) a__13) (* (- 0 1) (* a__10 a__14)) (* (- 0 1) (* a__15 a__11 a__14))) 0) (= (+ a__13 (* a__10 a__14) (* a__17 a__11 a__14) (* (- 0 1) a__1) (* (- 0 1) (* a__18 a__2)) (* (- 0 1) (* a__20 a__19 a__2))) 0) (= (* a__18 a__2) 0) (= (+ a__1 (* a__20 a__2) (* (- 0 1) a__13) (* (- 0 1) (* a__20 a__14))) 0) (= (+ a__13 (* a__22 a__14) (* a__17 a__23 a__14) (* (- 0 1) a__1) (* (- 0 1) (* a__25 a__2)) (* (- 0 1) (* a__27 a__26 a__2))) 0) (= (+ a__1 (* a__22 a__2) (* (- 0 1) a__13) (* (- 0 1) (* a__22 a__14)) (* (- 0 1) (* a__15 a__23 a__14))) 0) (= (+ a__13 (* a__29 a__14) (* a__17 a__30 a__14) (* (- 0 1) a__1) (* (- 0 1) (* a__33 a__2)) (* (- 0 1) (* a__36 a__34 a__2))) 0) (= (* a__22 a__2) 0) (= (* a__25 a__2) 0) (= (+ a__1 (* a__27 a__2) (* (- 0 1) a__13) (* (- 0 1) (* a__27 a__14))) 0) (= (+ a__13 (* a__33 a__14) (* a__17 a__34 a__14) (* (- 0 1) a__1) (* (- 0 1) (* a__38 a__2)) (* (- 0 1) (* a__40 a__39 a__2))) 0) (= (+ a__1 (* a__29 a__2) (* (- 0 1) a__13) (* (- 0 1) (* a__29 a__14)) (* (- 0 1) (* a__15 a__30 a__14))) 0) (= (+ a__13 (* a__36 a__14) (* a__40 a__37 a__14) (* (- 0 1) a__1) (* (- 0 1) (* a__6 a__2)) (* (- 0 1) (* a__27 a__7 a__2))) 0) (= (+ a__1 (* a__33 a__2) (* (- 0 1) a__13) (* (- 0 1) (* a__33 a__14)) (* (- 0 1) (* a__15 a__34 a__14))) 0) (= (+ a__13 (* a__36 a__14) (* a__38 a__37 a__14) (* (- 0 1) a__1) (* (- 0 1) (* a__8 a__2)) (* (- 0 1) (* a__36 a__9 a__2))) 0) (= (+ a__1 (* a__36 a__2) (* (- 0 1) a__13) (* (- 0 1) (* a__36 a__14))) 0) (= (+ a__13 (* a__20 a__14) (* (- 0 1) a__1) (* (- 0 1) (* a__42 a__2)) (* (- 0 1) (* a__27 a__43 a__2))) 0) (= (* a__38 a__2) 0) (= (+ a__1 (* a__40 a__2) (* (- 0 1) a__13) (* (- 0 1) (* a__40 a__14)) (* (- 0 1) (* a__15 a__41 a__14))) 0) (= (+ a__13 (* a__20 a__14) (* a__3 a__21 a__14) (* (- 0 1) a__1) (* (- 0 1) (* a__10 a__2)) (* (- 0 1) (* a__36 a__11 a__2))) 0) (= (+ a__13 (* a__27 a__14) (* a__3 a__28 a__14) (* (- 0 1) a__1) (* (- 0 1) (* a__22 a__2)) (* (- 0 1) (* a__36 a__23 a__2))) 0) (= (+ a__13 (* a__40 a__14) (* a__3 a__41 a__14) (* (- 0 1) a__1) (* (- 0 1) (* a__29 a__2)) (* (- 0 1) (* a__27 a__30 a__2))) 0))) (>= b__49 0) (>= 1 b__49) (>= a__14 0) (>= a__11 0) (>= a__23 0) (>= a__30 0) (>= a__34 0) (>= a__41 0) (>= b__50 0) (>= 1 b__50) (>= a__2 0) (>= b__51 0) (>= 1 b__51) (>= a__19 0) (>= b__52 0) (>= 1 b__52) (>= a__45 0) (>= a__16 0) (>= b__53 0) (>= 1 b__53) (>= a__7 0) (>= a__43 0) (>= a__26 0) (>= b__54 0) (>= 1 b__54) (>= a__9 0) (>= b__55 0) (>= 1 b__55) (>= a__39 0) (>= b__56 0) (>= 1 b__56) (>= a__4 0) (>= a__12 0) (>= a__21 0) (>= a__24 0) (>= a__28 0) (>= a__31 0) (>= a__35 0) (>= a__32 0) (>= a__37 0) (>= a__5 0) (>= a__15 0) (>= a__3 0) (>= a__44 0) (>= a__46 0) (>= a__47 0) (>= a__10 0) (>= a__17 0) (>= a__18 0) (>= a__20 0) (>= a__6 0) (>= a__22 0) (>= a__25 0) (>= a__27 0) (>= a__8 0) (>= a__29 0) (>= a__33 0) (>= a__36 0) (>= a__42 0) (>= a__38 0) (>= a__40 0) (>= a__48 0) (>= a__1 0) (>= a__13 0)))
(check-sat)
;;(get-assignment)
;;(get-model)
(exit)
